4 
5  31 53 
6  09 29 41 54 
7  09 24 42 57 
8  12 27 42 57 
9  12 27 42 57 
10  12 27 42 57 
11  12 27 42 57 
12  12 27 42 57 
13  12 27 42 57 
14  12 27 42 57 
15  12 27 42 57 
16  12 27 42 57 
17  12 27 42 57 
18  12 27 42 57 
19  13 29 44 59 
20  14 29 44 59 
21  14 29 44 59 
22  14 28 43 58 
23  13 28 
0 
